StringID   Type       x          y          demand     ReadyTime  DueDate    ServiceTime 
D0        d         40.0      50.0      0.0       0.0       1236.0    0.0       
C3        c         42.0      66.0      10.0      863.0     931.0     90.0      
S4        f         69.0      89.0      0.0       0.0       1236.0    0.0       
S6        f         39.0      96.0      0.0       0.0       1236.0    0.0       
S7        f         23.0      80.0      0.0       0.0       1236.0    0.0       
S10       f         1.0       56.0      0.0       0.0       1236.0    0.0       
S15       f         39.0      31.0      0.0       0.0       1236.0    0.0       
S17       f         59.0      17.0      0.0       0.0       1236.0    0.0       
S18       f         73.0      23.0      0.0       0.0       1236.0    0.0       
S20       f         90.0      44.0      0.0       0.0       1236.0    0.0       
C20       c         30.0      50.0      10.0      10.0      70.0      90.0      
C23       c         28.0      55.0      10.0      13.0      70.0      90.0      
C24       c         25.0      50.0      10.0      72.0      138.0     90.0      
C34       c         8.0       45.0      20.0      194.0     244.0     90.0      
C46       c         30.0      32.0      30.0      601.0     665.0     90.0      
C47       c         30.0      35.0      10.0      698.0     754.0     90.0      
C59       c         38.0      15.0      10.0      66.0      124.0     90.0      
C61       c         50.0      30.0      10.0      980.0     1064.0    90.0      
C65       c         48.0      40.0      10.0      67.0      139.0     90.0      
C66       c         47.0      35.0      10.0      1068.0    1129.0    90.0      
C69       c         45.0      35.0      10.0      448.0     516.0     90.0      
C72       c         53.0      30.0      10.0      904.0     954.0     90.0      
C73       c         92.0      30.0      10.0      287.0     361.0     90.0      
C74       c         53.0      35.0      50.0      78.0      142.0     90.0      
C75       c         45.0      65.0      20.0      16.0      91.0      90.0      
C76       c         90.0      35.0      10.0      575.0     639.0     90.0      
C80       c         85.0      25.0      10.0      637.0     689.0     90.0      
C81       c         85.0      35.0      30.0      761.0     823.0     90.0      
C83       c         72.0      55.0      10.0      556.0     618.0     90.0      
C87       c         65.0      55.0      20.0      87.0      145.0     90.0      
C88       c         65.0      60.0      30.0      837.0     895.0     90.0      
C89       c         63.0      58.0      10.0      929.0     989.0     90.0      
C95       c         62.0      80.0      30.0      274.0     330.0     90.0      
C96       c         60.0      80.0      10.0      177.0     243.0     90.0      

Q xxxxxxxxxxxxxxxxxxxx /79.69/
C xxxxxxxxxxxxxxxxxxxxx /200.0/
r xxxxxxxxxxxxxx /1.0/
g xxxxxxxxxxxxxxxxxxxxxxx /3.39/
v xxxxxxxxxxxxxxx /1.0/
